(declare-fun c () String)
(declare-fun g () String)
(declare-fun b () String)
(declare-fun d () String)
(declare-fun a () String)
(declare-fun h () String)
(assert (= (str.++ "efaeh" d) (str.++ c d "dhb" c)))
(assert (= (str.++ a "hcgag") (str.++ "c" h "hh")))
(assert (= (str.++ g g h b "b") (str.++ "c" a)))

(check-sat)
